cases/matpower/case3_oltc_pst.m
ipopt
QCRM
[info | PowerModels]: extending matpower format with data: branch_oltc_pst 3x5
[warn | PowerModels]: added zero cost function data for dclines
[info | PowerModels]: extending matpower format by appending matrix "branch_oltc_pst" in to "branch"
[warn | PowerModels]: no reference bus found
[warn | PowerModels]: no reference bus found, setting bus 1 as reference based on generator 1
[info | PowerModels]: removing 3 cost terms from generator 3: Float64[]
[info | PowerModels]: removing 3 cost terms from dcline 1: Float64[]

******************************************************************************
This program contains Ipopt, a library for large-scale nonlinear optimization.
 Ipopt is released as open source code under the Eclipse Public License (EPL).
         For more information visit http://projects.coin-or.org/Ipopt
******************************************************************************

This is Ipopt version 3.13.2, running with linear solver mumps.
NOTE: Other linear solvers might be more efficient (see Ipopt documentation).

Number of nonzeros in equality constraint Jacobian...:       97
Number of nonzeros in inequality constraint Jacobian.:      195
Number of nonzeros in Lagrangian Hessian.............:       29

Total number of variables............................:       51
                     variables with only lower bounds:        0
                variables with lower and upper bounds:       48
                     variables with only upper bounds:        0
Total number of equality constraints.................:       26
Total number of inequality constraints...............:       75
        inequality constraints with only lower bounds:       36
   inequality constraints with lower and upper bounds:        0
        inequality constraints with only upper bounds:       39

iter    objective    inf_pr   inf_du lg(mu)  ||d||  lg(rg) alpha_du alpha_pr  ls
   0  6.3949934e+00 1.20e+00 2.38e+01  -1.0 0.00e+00    -  0.00e+00 0.00e+00   0
   1  6.9941608e+01 1.13e+00 3.04e+01  -1.0 1.77e+00    -  5.90e-03 5.42e-02h  1
   2  4.0732391e+02 9.47e-01 2.51e+01  -1.0 1.76e+00    -  1.48e-02 1.65e-01h  1
   3  6.0243149e+02 8.74e-01 2.33e+01  -1.0 1.47e+00    -  2.10e-01 7.76e-02h  1
   4  1.9825326e+03 5.32e-01 1.44e+01  -1.0 1.36e+00    -  6.17e-01 3.91e-01h  1
   5  3.8781939e+03 2.27e-01 6.08e+00  -1.0 8.28e-01    -  4.27e-01 5.73e-01h  1
   6  4.3455983e+03 1.65e-01 8.60e+00  -1.0 3.37e-01    -  4.24e-01 2.72e-01h  1
   7  4.8057548e+03 1.08e-01 1.91e+01  -1.0 2.43e-01    -  8.31e-01 3.46e-01h  1
   8  5.1883415e+03 6.31e-02 1.49e+01  -1.0 1.75e-01    -  5.73e-01 4.17e-01h  1
   9  5.4954943e+03 2.82e-02 3.59e+01  -1.0 1.69e-01    -  9.91e-01 5.53e-01h  1
iter    objective    inf_pr   inf_du lg(mu)  ||d||  lg(rg) alpha_du alpha_pr  ls
  10  5.7576652e+03 4.60e-04 7.79e-01  -1.0 1.18e-01    -  1.00e+00 1.00e+00h  1
  11  5.7540881e+03 3.50e-16 2.11e-01  -1.7 1.50e-02    -  1.00e+00 1.00e+00f  1
  12  5.7533647e+03 6.77e-16 1.54e-02  -1.7 4.54e-03    -  1.00e+00 1.00e+00f  1
  13  5.7519151e+03 6.35e-05 3.43e+00  -3.8 9.28e-03    -  7.95e-01 9.86e-01f  1
  14  5.7516700e+03 1.17e-05 2.79e+00  -3.8 3.54e-03    -  5.74e-01 8.00e-01f  1
  15  5.7515911e+03 3.15e-08 1.47e+00  -3.8 2.20e-03    -  6.98e-01 9.50e-01f  1
  16  5.7515758e+03 1.08e-15 2.33e-01  -3.8 2.88e-03    -  1.00e+00 6.79e-01f  1
  17  5.7515718e+03 3.69e-16 4.05e-05  -3.8 2.52e-04    -  1.00e+00 1.00e+00f  1
  18  5.7515564e+03 8.71e-16 1.71e-02  -5.7 3.65e-04    -  9.12e-01 9.75e-01f  1
  19  5.7515560e+03 4.44e-16 1.07e-07  -5.7 1.18e-05    -  1.00e+00 1.00e+00f  1
iter    objective    inf_pr   inf_du lg(mu)  ||d||  lg(rg) alpha_du alpha_pr  ls
  20  5.7515558e+03 2.22e-16 1.15e-08  -8.6 4.18e-06    -  1.00e+00 1.00e+00f  1
  21  5.7515558e+03 3.64e-16 2.09e-13  -9.0 7.58e-07    -  1.00e+00 1.00e+00h  1

Number of Iterations....: 21

                                   (scaled)                 (unscaled)
Objective...............:   1.1503111539954577e+03    5.7515557699772880e+03
Dual infeasibility......:   2.0936427562154290e-13    1.0468213781077145e-12
Constraint violation....:   3.6429192995512949e-16    3.6429192995512949e-16
Complementarity.........:   9.0927553053416225e-10    4.5463776526708109e-09
Overall NLP error.......:   9.0927553053416225e-10    4.5463776526708109e-09


Number of objective function evaluations             = 22
Number of objective gradient evaluations             = 22
Number of equality constraint evaluations            = 22
Number of inequality constraint evaluations          = 22
Number of equality constraint Jacobian evaluations   = 22
Number of inequality constraint Jacobian evaluations = 22
Number of Lagrangian Hessian evaluations             = 21
Total CPU secs in IPOPT (w/o function evaluations)   =      0.250
Total CPU secs in NLP function evaluations           =      0.211

EXIT: Optimal Solution Found.
Time to Solution........:1.221081018447876
